(assert (forall ((pkt_0_3_5_0  Int  )(state_group_0_state_0_4_6_0  Int  )) (let ((_n0 state_group_0_state_0_4_6_0 ))
(let ((_n1 true ))
(let ((_n2 (+   _n0   (ite  _n1  1 0) ) ))
(let ((_n3 (ite (=  _n0  29)  _n0   _n2  ) ))
(let ((_n4 false ))
(let ((_n5 (ite (=  _n0  29)  (ite  _n4  1 0)   _n0  ) ))
(let ((_n6 (ite (=  _n0  29)  _n5   _n0  ) ))
(let ((_n7 (ite (=  _n0  29)  _n6   _n3  ) ))
(let ((_n8 2 ))
(let ((_n9 (=   _n0   _n8 ) ))
(let ((_n10 (not  _n9 ) ))
(let ((_n11 3 ))
(let ((_n12 (ite (=  _n0  2)  _n11   (ite  _n4  1 0)  ) ))
(let ((_n13 (ite (=  _n0  2)  (ite  _n4  1 0)   _n0  ) ))
(let ((_n14 (+   _n13   _n12 ) ))
(let ((_n15 (+   _n0   (ite  _n10  1 0) ) ))
(let ((_n16 (ite (=  (ite  _n10  1 0)  1)  _n15   _n14  ) ))
(let ((_n17 (=   _n16   _n7 ) ))
(let ((_n19 pkt_0_3_5_0 ))
(let ((_n20 (ite (=  _n0  29)  _n19   (ite  _n4  1 0)  ) ))
(let ((_n21 (ite (=  _n0  29)  (ite  _n1  1 0)   _n19  ) ))
(let ((_n22 (ite (=  _n0  29)  _n21   _n19  ) ))
(let ((_n23 (ite (=  _n0  29)  _n22   _n20  ) ))
(let ((_n24 (=   (ite  _n4  1 0)   _n23 ) ))
(implies  (and (and (>= state_group_0_state_0_4_6_0 0) (< state_group_0_state_0_4_6_0 1024 ))  (and (>= pkt_0_3_5_0 0) (< pkt_0_3_5_0 1024 )) )   (and  _n17  _n24 )  )))))))))))))))))))))))))))
(check-sat)
(get-model)
(exit)